Route #1: 83 82 18 84 60 89 
Route #2: 72 75 22 54 4 
Route #3: 5 44 16 85 97 
Route #4: 28 12 40 94 26 
Route #5: 39 23 67 55 25 
Route #6: 45 47 19 8 46 17 93 
Route #7: 33 29 79 78 34 35 77 
Route #8: 59 42 15 87 57 43 13 
Route #9: 65 71 81 3 68 24 80 
Route #10: 92 14 38 86 37 91 100 
Route #11: 31 30 51 9 20 1 
Route #12: 27 69 76 53 50 
Route #13: 2 21 73 41 56 74 58 
Route #14: 95 98 61 99 6 96 
Route #15: 36 64 49 48 
Route #16: 52 88 7 10 
Route #17: 63 62 11 90 66 32 70 
Objective: 313787.3
